NAME : myTSP_dim10
COMMENT : generated for test
TYPE : TSP
DIMENSION : 10
EDGE_WEIGHT_TYPE : EUC_2D
BEST_KNOWN : 2732
NODE_COORD_SECTION
1 696.4691855978616 286.13933495037946
2 480.93190148436094 392.11751819415053
3 438.5722446796244 59.67789660956835
4 182.49173045349997 175.45175614749255
5 226.8514535642031 551.3147690828912
6 343.1780161508694 729.0497073840417
7 398.04425533043144 737.9954057320357
8 531.5513738418384 531.8275870968661
9 980.7641983846155 684.8297385848633
10 719.4689697855631 423.10646012446097
EOF